1111100 AB
300 320 340 360 380 400 416 431 447 462 477 493 508 524 547 574 601 628 655 681 708 735 761 788 815 835 855 875 895 915 941 968 994 1021 1048 1066 1084 1102 1120 1138 1155 1175 1195 1230 1265 1295 1325 1355 1385 1415 5 35 65
1111100 BA
300 320 340 360 380 400 424 447 470 489 509 537 565 593 621 649 675 702 729 755 782 809 835 862 889 915 942 969 995 1023 1051 1078 1105 1131 1158 1185 1221 1257 1288 1319 1349 1379 1409 1439 29 59
0000011 AB
300 330 360 390 420 458 496 534 569 604 645 680 716 751 777 802 827 853 878 903 929 967 1005 1043 1081 1106 1131 1157 1182 1220 1258 1293 1323 1353 1383 1413 3 33
0000011 BA
300 330 360 390 420 458 496 534 569 604 645 680 716 751 777 802 827 853 878 903 929 967 1005 1043 1081 1106 1131 1157 1182 1220 1258 1293 1323 1353 1383 1413 3 33
